32      1       
10      
0       0       2       2       4       
9       0       1       3       
2       1       1       5       
10      6       1       5       
4       2       1       6       
10      0       1       7       
5       6       1       8       
4       2       1       9       
2       0       2       10      11      
10      5       1       12      
2       7       1       12      
10      2       1       13      
3       0       1       14      
8       2       1       15      
1       0       1       16      
3       3       1       17      
9       5       1       18      
10      9       1       19      
1       0       1       20      
3       4       1       21      
3       0       1       22      
9       5       2       23      24      
3       2       1       25      
9       4       1       25      
1       4       1       26      
7       6       1       27      
8       7       1       28      
4       0       1       29      
5       1       1       30      
2       1       1       31      
8       0       1       32      
0       0       0       
